50
18813

465 905
376 962
370 77
767 623
73 788
286 225
7 376
624 572
327 969
310 915
951 9
187 908
656 995
325 9
831 16
65 906
382 607
856 502
584 287
937 318
89 786
317 688
106 621
451 148
948 899
590 37
533 717
730 559
651 553
640 877
183 541
882 712
90 206
491 642
995 25
751 777
837 439
361 666
322 191
911 617
208 896
746 195
86 660
421 499
920 612
948 374
662 841
723 192
285 249
612 145
